b 5
b -20
b -22
b -30
b -31
b -32
b -37
b -38
b -42
b -43
b -44
b -59
b 60
b -70
b -71
b -78
b -79
b -7
b -8
b -11
b -13
b -16
b -24
b -29
b -34
b -35
b -36
b 40
b -41
b 46
b -48
b 49
b -53
b 56
b 57
b -62
b 64
b -65
b 67
b -73
b 74
b 75
b 76
b 0
s SATISFIABLE
